SCIP version 5.0.0 [precision: 8 byte] [memory: block] [mode: optimized] [LP solver: NONE] [GitHash: 3bbd232]
Copyright (C) 2002-2017 Konrad-Zuse-Zentrum fuer Informationstechnik Berlin (ZIB)

External codes: 
  Readline EditLine w  GNU library for command line editing (gnu.org/s/readline)
  CppAD 20160000.1     Algorithmic Differentiation of C++ algorithms developed by B. Bell (www.coin-or.org/CppAD)
  ZLIB 1.2.5           General purpose compression library by J. Gailly and M. Adler (zlib.net)
  GMP 6.1.2            GNU Multiple Precision Arithmetic Library developed by T. Granlund (gmplib.org)

user parameter file <scip.set> not found - using default parameters

read problem <../../Split_data/output/parkin/6/0_sample_parkin.logreg>
============

File name	:	../../Split_data/output/parkin/6/0_sample_parkin.logreg
Problem name 	:	0_sample_parkin
Number of data	:	156
Number of var	:	22
The given data has linear independence

[dim=1] time: 0.047203
[dim=2] time: 0.162006
[dim=3] time: 0.295945
[dim=4] time: 0.441019
[dim=5] time: 0.678666
[dim=6] time: 0.792261
[dim=7] time: 0.919888
[dim=8] Time of forward = 1.00083sec.
AIC: 102.28
k: 7

[dim=22] time: 4.91957
[dim=21] time: 11.2348
[dim=20] time: 16.6977
[dim=19] time: 22.2515
[dim=18] time: 31.2405
[dim=17] time: 31.7819
[dim=16] time: 33.8241
[dim=15] time: 35.5269
[dim=14] time: 37.129
[dim=13] time: 37.6206
[dim=12] time: 39.149
[dim=11] time: 40.2433
[dim=10] time: 41.786
[dim=9] time: 43.0447
[dim=8] time: 43.0462
[dim=7] Time of backward = 43.0471sec.
AIC: 92.0283
k: 8
